c --- [ banner ] -------------------------------------------------------------
c 
c CaDiCaL Radically Simplified CDCL SAT Solver
c Copyright (c) 2016-2021 A. Biere, M. Fleury, N. Froleyks
c 
c Version 1.5.2 9c38a080b32c28d805e8e6ca21849856b0cda605
c g++ (Ubuntu 7.5.0-3ubuntu1~18.04) 7.5.0 -Wall -Wextra -O3 -DNDEBUG
c Wed Feb 16 23:15:36 EST 2022 Linux fac-vanhoeve01 5.4.0-99-generic x86_64
c 
c --- [ limit ] --------------------------------------------------------------
c 
c setting time limit to 600 seconds real time (due to '-t 600')
c setting conflict limit to 1000000000 conflicts (due to '1000000000')
c 
c --- [ parsing input ] ------------------------------------------------------
c 
c reading DIMACS file from 'ddfwcnfs/le450_15d.col_15.cnf'
c opening file to read 'ddfwcnfs/le450_15d.col_15.cnf'
c found 'p cnf 6750 233640' header
c parsed 233640 clauses in 0.11 seconds process time
c closing file 'ddfwcnfs/le450_15d.col_15.cnf'
c after reading 3213577 bytes 3.1 MB
c 
c --- [ options ] ------------------------------------------------------------
c 
c all options are set to their default value
c 
c --- [ solving ] ------------------------------------------------------------
c 
c time measured in process time since initialization
c 
c  seconds  reductions  redundant  irredundant
c         MB    restarts       trail      variables
c          level   conflicts       glue        remaining
c 
c *  0.11 24  0 0   0    0    0  0% 0 233415 6525 97%
c {  0.12 24  0 0   0    0    0  0% 0 233415 6525 97%
c -  0.16 24 13 1   3  300  179 20% 11 233415 6525 97%
c }  0.19 24 15 1  36 1000  618 20% 12 233415 6525 97%
c [  0.19 24  0 1  36 1000  618  0% 0 233415 6525 97%
c O  0.19 24 60 1  36 1004  622 40% 12 233415 6525 97%
c -  0.28 31 19 2  36 1122  612 26% 10 233415 6525 97%
c -  0.38 32 24 3  37 2353 1042 23% 18 233415 6525 97%
c ]  0.40 32 25 3  37 3001 1537 23% 19 233415 6525 97%
c {  0.40 32 15 3  37 3001 1537 20% 12 233415 6525 97%
c F  0.41 32 15 3  37 3006 1542 20% 12 233415 6525 97%
c -  0.49 32 14 4  37 3994 1486 17% 11 233415 6525 97%
c #  0.71 31 13 4  52 6007 2633 16% 10 233415 6525 97%
c -  0.76 31 13 5  52 6047 1616 16% 10 233415 6525 97%
c }  0.80 31 14 5 211 7002 2082 17% 10 233415 6525 97%
c [  0.80 31 25 5 211 7002 2082 23% 19 233415 6525 97%
c -  0.91 31 23 6 212 8510 1955 23% 17 233415 6525 97%
c I  0.97 31 22 6 213 10010 3012 22% 17 233415 6525 97%
c s  1.06 40 38 6 214 10324 3111 25% 18 233415 6525 97%
c w  1.13 40 38 6 214 10324 3111 25% 18 233415 6525 97%
c 
c  seconds  reductions   redundant   irredundant
c         MB    restarts        trail       variables
c          level    conflicts       glue         remaining
c 
c e  1.47 40 38 6 214 10324  401 25% 18 158701 4978 74%
c s  1.57 40 38 6 214 10324  356 25% 18 158701 4978 74%
c ^  1.59 40 38 6 214 10324  356 25% 18 158701 4978 74%
c -  1.85 39 38 7 215 11385 1118 55% 20 158701 4978 74%
c -  2.36 45 39 8 216 14266 3224 57% 22 158701 4978 74%
c ]  2.50 45 39 8 216 15003 3931 58% 23 158701 4978 74%
c {  2.50 45 14 8 216 15003 3931 23% 10 158701 4978 74%
c B  2.70 45 14 8 219 15013 3941 23% 11 158701 4978 74%
c -  2.95 50 16 9 408 17508 3235 24% 12 158701 4978 74%
c W  3.23 50 15 9 477 21014 4932 22% 12 158701 4978 74%
c -  3.31 50 15 10 501 21109 2686 22% 12 158701 4978 74%
c -  3.81 50 18 11 937 25071 3364 24% 14 158701 4978 74%
c F  3.93 50 17 11 969 28015 4957 23% 13 158701 4978 74%
c -  4.24 50 19 12 1189 29394 3747 25% 14 158701 4978 74%
c s  4.66 50 20 12 1402 30303 4069 26% 14 158701 4978 74%
c w  4.74 50 20 12 1402 30303 4069 26% 14 158701 4978 74%
c s  4.94 50 20 12 1402 30303 3965 26% 14 158701 4978 74%
c ^  4.96 50 20 12 1402 30303 3965 26% 14 158701 4978 74%
c }  5.14 50 20 12 1583 31003 4625 27% 15 158701 4978 74%
c [  5.14 50 39 12 1583 31003 4625 58% 23 158701 4978 74%
c 
c  seconds  reductions     redundant   irredundant
c         MB     restarts         trail       variables
c          level      conflicts       glue         remaining
c 
c -  5.67 50 39 13 1584 34076 5039 56% 24 158701 4978 74%
c B  6.03 50 39 13 1586 36017 6736 56% 24 158701 4978 74%
c -  6.60 50 49 14 1588 39119 6332 56% 27 158701 4978 74%
c -  7.61 41 48 15 1590 44521 6826 57% 28 158701 4978 74%
c W  8.05 41 48 15 1590 45020 7296 57% 28 158701 4978 74%
c -  9.24 41 46 16 1591 50286 7262 57% 29 158701 4978 74%
c O 10.07 41 45 16 1592 55021 11379 57% 29 158701 4978 74%
c - 10.20 41 44 17 1594 56409 8004 56% 29 158701 4978 74%
c s 10.42 41 41 17 1596 60271 10609 52% 27 158701 4978 74%
c w 10.53 41 41 17 1596 60271 10606 52% 27 158701 4978 74%
c s 10.75 41 41 17 1596 60271 10570 52% 27 158701 4978 74%
c ^ 10.77 41 41 17 1596 60271 10570 52% 27 158701 4978 74%
c - 10.96 46 40 18 1598 62895 6977 49% 26 158701 4978 74%
c ] 10.96 46 40 18 1598 63004 7045 49% 26 158701 4978 74%
c { 10.96 46 20 18 1598 63004 7045 27% 15 158701 4978 74%
c B 11.59 46 23 18 2154 66022 9541 29% 16 158701 4978 74%
c - 11.82 46 22 19 2176 69738 7144 28% 15 158701 4978 74%
c - 12.43 46 21 20 2225 76941 7349 26% 15 158701 4978 74%
c W 12.98 46 21 20 2225 78024 7986 25% 15 158701 4978 74%
c - 13.36 46 20 21 2346 84505 7039 24% 14 158701 4978 74%
c 
c  seconds  reductions      redundant   irredundant
c         MB     restarts          trail       variables
c          level      conflicts        glue         remaining
c 
c # 13.64 46 19 21 2350 91025 10970 23% 14 158701 4978 74%
c - 13.75 46 19 22 2355 92428 6916 23% 14 158701 4978 74%
c s 14.15 46 18 22 2452 100228 10651 22% 13 158701 4978 74%
c s 14.47 46 18 22 2452 100228 10269 22% 13 158701 4978 74%
c ^ 14.49 46 18 22 2452 100228 10269 22% 13 158701 4978 74%
c - 14.56 46 18 23 2452 100712 6478 22% 13 158701 4978 74%
c B 14.94 46 17 23 2454 105027 8694 21% 13 158701 4978 74%
c - 15.45 46 18 24 2819 109356 7297 22% 13 158701 4978 74%
c - 15.89 46 18 25 4061 118361 6220 21% 14 158701 4978 74%
c W 16.62 46 18 25 4286 120028 6889 21% 14 158701 4978 74%
c } 16.94 46 17 25 4332 127005 10673 21% 13 158701 4978 74%
c [ 16.94 46 40 25 4332 127005 10673 49% 26 158701 4978 74%
c - 17.03 46 39 26 4332 127726 6980 49% 26 158701 4978 74%
c B 17.45 46 35 26 4337 136029 12544 42% 24 158701 4978 74%
c - 17.75 51 38 27 4338 137453 9345 42% 24 158701 4978 74%
c - 19.92 51 38 28 4340 147538 11251 46% 26 158701 4978 74%
c s 20.50 51 38 28 4340 150178 13085 46% 26 158701 4978 74%
c s 20.84 51 38 28 4340 150178 12968 46% 26 158701 4978 74%
c ^ 20.86 51 38 28 4340 150178 12968 46% 26 158701 4978 74%
c W 22.32 51 38 28 4341 153031 15540 47% 26 158701 4978 74%
c 
c  seconds  reductions       redundant   irredundant
c         MB     restarts           trail       variables
c          level      conflicts         glue         remaining
c 
c - 23.50 51 38 29 4341 157986 13155 48% 26 158701 4978 74%
c - 26.12 42 38 30 4342 168791 14114 50% 27 158701 4978 74%
c I 26.59 42 38 30 4344 171032 16072 51% 27 158701 4978 74%
c - 28.44 43 45 31 4348 179957 14127 52% 31 158701 4978 74%
c B 30.89 43 47 31 4355 190037 22885 54% 33 158701 4978 74%
c - 31.33 43 47 32 4355 191482 14016 54% 34 158701 4978 74%
c - 34.34 43 49 33 4358 203369 15580 55% 36 158701 4978 74%
c W 37.34 43 50 33 4363 210039 21506 56% 37 158701 4978 74%
c s 37.42 43 50 33 4363 210114 21540 56% 37 158701 4978 74%
c w 37.61 43 50 33 4363 210114 21539 56% 37 158701 4978 74%
c s 37.90 43 50 33 4363 210114 21534 56% 37 158701 4978 74%
c - 39.38 43 50 34 4365 215615 16772 57% 37 158701 4978 74%
c - 42.83 43 51 35 4371 228223 16994 58% 39 158701 4978 74%
c O 43.48 43 51 35 4371 231040 19298 58% 39 158701 4978 74%
c - 44.00 41 47 36 4372 241192 14754 53% 36 158701 4978 74%
c B 44.58 41 44 36 4373 253041 22997 48% 34 158701 4978 74%
c - 44.89 48 48 37 4373 254520 13726 48% 34 158701 4978 74%
c ] 44.98 48 49 37 4373 255006 14191 48% 34 158701 4978 74%
c { 44.98 48 17 37 4373 255006 14191 21% 13 158701 4978 74%
c - 45.98 48 17 38 5004 268210 12317 21% 14 158701 4978 74%
c 
c  seconds  reductions       redundant   irredundant
c         MB     restarts           trail       variables
c          level      conflicts         glue         remaining
c 
c F 46.56 48 17 38 5062 276044 16254 21% 13 158701 4978 74%
c - 46.88 48 17 39 5109 282258 10732 20% 13 158701 4978 74%
c - 47.57 48 16 40 5207 296665 11011 20% 13 158701 4978 74%
c B 47.73 48 16 40 5244 300046 12932 20% 13 158701 4978 74%
c - 48.72 48 17 41 5966 311432 12878 20% 13 158701 4978 74%
c W 51.03 48 16 41 6105 325047 20385 19% 13 158701 4978 74%
c - 51.17 51 16 42 6111 326559 12489 19% 13 158701 4978 74%
c - 52.15 51 16 43 6237 342047 12114 19% 13 158701 4978 74%
c # 52.56 51 15 43 6282 351050 17051 18% 12 158701 4978 74%
c - 52.92 51 15 44 6325 357895 12851 18% 12 158701 4978 74%
c - 53.67 51 15 45 6573 374102 11936 18% 12 158701 4978 74%
c B 53.85 51 15 45 6626 378051 14121 18% 12 158701 4978 74%
c - 56.41 51 17 46 8594 390669 16570 21% 13 158701 4978 74%
c W 59.22 52 17 46 8858 406052 25087 21% 13 158701 4978 74%
c - 59.35 52 17 47 8875 407598 13838 21% 13 158701 4978 74%
c - 60.30 52 16 48 9208 424887 13344 21% 13 158701 4978 74%
c F 61.11 52 17 48 9713 435055 19150 21% 13 158701 4978 74%
c - 61.51 52 16 49 9788 442535 13434 21% 13 158701 4978 74%
c - 62.67 52 17 50 11041 460544 13535 21% 13 158701 4978 74%
c B 62.91 52 17 50 11694 465058 16269 21% 13 158701 4978 74%
c 
c  seconds  reductions        redundant   irredundant
c         MB      restarts           trail       variables
c          level       conflicts         glue         remaining
c 
c - 63.68 52 17 51 12060 478913 14077 20% 13 158701 4978 74%
c W 66.81 52 17 51 12314 496059 22791 20% 13 158701 4978 74%
c - 67.02 52 17 52 12430 497644 13658 20% 13 158701 4978 74%
c } 67.59 52 16 52 12708 511009 19747 20% 13 158701 4978 74%
c [ 67.59 52 49 52 12708 511009 19747 48% 34 158701 4978 74%
c - 67.92 52 47 53 12708 516735 13045 46% 33 158701 4978 74%
c W 71.70 52 49 53 12708 528062 20888 44% 33 158701 4978 74%
c - 73.23 52 50 54 12708 536184 19255 45% 33 158701 4978 74%
c - 77.34 44 50 55 12718 555993 22225 47% 34 158701 4978 74%
c I 78.44 44 50 55 12722 561064 26144 48% 34 158701 4978 74%
c - 82.04 48 70 56 12726 576162 25717 49% 41 158701 4978 74%
c s 82.10 48 70 56 12726 576162 23809 49% 41 158701 4978 74%
c w 82.45 48 70 56 12726 576162 23806 49% 41 158701 4978 74%
c B 87.26 48 70 56 12737 595066 40594 52% 43 158701 4978 74%
c - 87.84 46 70 57 12737 596692 24973 52% 43 158701 4978 74%
c - 94.24 45 67 58 12739 617582 25621 54% 44 158701 4978 74%
c W 100.83 45 66 58 12745 630069 36226 54% 44 158701 4978 74%
c - 103.17 56 65 59 12749 638833 27298 55% 45 158701 4978 74%
c - 108.79 67 64 60 12757 660444 28426 56% 45 158701 4978 74%
c O 110.21 67 64 60 12761 666070 33413 57% 45 158701 4978 74%
c 
c  seconds   reductions        redundant   irredundant
c          MB      restarts           trail       variables
c           level       conflicts         glue         remaining
c 
c - 111.57 67 57 61 12769 682416 23440 51% 40 158701 4978 74%
c B 112.94 67 51 61 12770 703073 37860 45% 36 158701 4978 74%
c - 113.11 67 51 62 12770 704746 22313 45% 36 158701 4978 74%
c - 117.75 67 65 63 12771 727436 26791 47% 41 158701 4978 74%
c W 126.23 67 68 63 12772 741077 39196 48% 43 158701 4978 74%
c - 129.57 67 69 64 12772 750487 31570 48% 44 158701 4978 74%
c - 138.45 67 69 65 12772 773898 33491 50% 45 158701 4978 74%
c I 140.69 67 69 65 12772 780080 38957 51% 45 158701 4978 74%
c - 143.18 67 96 66 12772 797669 30834 48% 49 158701 4978 74%
c B 148.64 67 103 66 12781 820082 50780 48% 51 158701 4978 74%
c - 149.14 67 103 67 12782 821801 31112 48% 51 158701 4978 74%
c - 155.05 67 91 68 12793 846295 28781 50% 48 158701 4978 74%
c W 164.47 67 84 68 12801 861084 40530 51% 46 158701 4978 74%
c - 167.12 67 84 69 12802 871146 30251 52% 45 158701 4978 74%
c - 174.84 67 76 70 12809 896361 32095 53% 43 158701 4978 74%
c O 176.65 67 74 70 12812 903085 38309 54% 42 158701 4978 74%
c - 177.90 67 65 71 12818 921933 28461 48% 38 158701 4978 74%
c B 180.08 67 56 71 12832 946086 46581 42% 34 158701 4978 74%
c - 180.58 67 56 72 12833 947866 28951 43% 34 158701 4978 74%
c - 188.03 67 53 73 12835 974158 31464 47% 33 158701 4978 74%
c 
c  seconds   reductions        redundant   irredundant
c          MB      restarts           trail       variables
c           level       conflicts         glue         remaining
c 
c W 199.74 67 51 73 12835 990087 46020 49% 33 158701 4978 74%
c - 203.64 67 50 74 12835 1000811 34516 50% 33 158701 4978 74%
c s 203.75 67 50 74 12835 1000811 33631 50% 33 158701 4978 74%
c w 204.29 67 50 74 12835 1000811 33628 50% 33 158701 4978 74%
c ] 212.28 67 47 74 12847 1023009 52753 52% 33 158701 4978 74%
c { 212.28 67 16 74 12847 1023009 52753 20% 13 158701 4978 74%
c - 213.78 67 17 75 13612 1027825 34267 21% 13 158701 4978 74%
c # 214.16 67 17 75 13701 1035088 38864 21% 13 158701 4978 74%
c - 215.95 42 17 76 14435 1055198 24433 21% 13 158701 4978 74%
c B 217.20 42 16 76 14710 1081089 38083 21% 13 158701 4978 74%
c - 217.41 48 16 77 14767 1082932 20978 21% 13 158701 4978 74%
c - 222.28 55 19 78 18059 1111026 25427 24% 14 158701 4978 74%
c W 229.77 55 18 78 18134 1128090 35302 23% 14 158701 4978 74%
c - 230.53 55 18 79 18205 1139480 23143 23% 14 158701 4978 74%
c - 233.32 55 18 80 19033 1168293 22975 22% 14 158701 4978 74%
c F 234.26 55 18 80 19668 1176092 28216 23% 14 158701 4978 74%
c - 235.46 55 17 81 19772 1197468 23884 22% 14 158701 4978 74%
c B 237.12 55 16 81 20085 1225095 38846 21% 13 158701 4978 74%
c - 237.47 55 17 82 20258 1227002 22716 21% 13 158701 4978 74%
c - 240.25 55 17 83 21593 1256896 24490 22% 14 158701 4978 74%
c 
c  seconds   reductions         redundant   irredundant
c          MB      restarts            trail       variables
c           level        conflicts         glue         remaining
c 
c W 248.90 55 17 83 21754 1275096 34809 21% 13 158701 4978 74%
c - 249.69 55 16 84 21866 1287152 23677 20% 13 158701 4978 74%
c - 251.63 55 15 85 22162 1317766 23705 20% 13 158701 4978 74%
c # 252.11 55 15 85 22248 1326098 28332 19% 13 158701 4978 74%
c - 253.49 55 15 86 22737 1348740 23218 19% 12 158701 4978 74%
c B 257.04 55 17 86 24818 1378100 45748 20% 13 158701 4978 74%
c - 257.79 56 17 87 25082 1380076 30511 21% 13 158701 4978 74%
c - 259.33 56 16 88 25688 1411772 24252 20% 13 158701 4978 74%
c W 268.13 56 16 88 25913 1431102 34380 20% 13 158701 4978 74%
c - 268.96 56 16 89 26087 1443827 23714 20% 13 158701 4978 74%
c - 270.98 56 15 90 26734 1476243 23189 19% 12 158701 4978 74%
c s 271.03 56 15 90 26734 1476243 19785 19% 12 158701 4978 74%
c w 271.38 56 15 90 26734 1476243 19774 19% 12 158701 4978 74%
c F 272.25 56 15 90 26837 1485104 23868 19% 12 158701 4978 74%
c - 273.71 56 14 91 27251 1509018 23279 19% 12 158701 4978 74%
c B 275.21 56 14 91 27693 1540105 39243 18% 12 158701 4978 74%
c - 275.45 56 14 92 27856 1542154 23713 18% 12 158701 4978 74%
c - 278.23 56 15 93 29412 1575650 26266 19% 12 158701 4978 74%
c W 288.02 56 15 93 29654 1596107 38532 18% 12 158701 4978 74%
c - 288.98 56 14 94 29813 1609506 26763 18% 12 158701 4978 74%
c 
c  seconds   reductions         redundant   irredundant
c          MB      restarts            trail       variables
c           level        conflicts         glue         remaining
c 
c - 292.07 56 15 95 31569 1643725 26895 19% 12 158701 4978 74%
c # 292.52 56 15 95 31705 1653112 31849 18% 12 158701 4978 74%
c - 293.79 56 14 96 32431 1678301 24608 19% 12 158701 4978 74%
c B 295.52 56 14 96 33198 1711113 40156 19% 12 158701 4978 74%
c - 296.30 56 15 97 33730 1713239 24422 19% 12 158701 4978 74%
c - 298.29 56 14 98 34709 1748536 26663 18% 12 158701 4978 74%
c W 308.55 56 14 98 34876 1770115 38989 17% 11 158701 4978 74%
c - 309.49 56 14 99 35320 1784196 28542 17% 11 158701 4978 74%
c - 311.67 56 13 100 35701 1820213 29033 16% 11 158701 4978 74%
c F 312.17 56 13 100 35746 1830119 34018 16% 11 158701 4978 74%
c - 313.64 56 13 101 36414 1856590 28678 15% 10 158701 4978 74%
c B 315.89 56 12 101 37144 1891123 46282 15% 10 158701 4978 74%
c - 316.57 56 13 102 37659 1893327 28565 15% 11 158701 4978 74%
c - 318.41 56 13 103 39735 1930425 25136 16% 11 158701 4978 74%
c W 329.30 56 13 103 40789 1953124 34265 17% 11 158701 4978 74%
c - 330.24 56 13 104 41487 1967888 22940 17% 11 158701 4978 74%
c - 332.35 56 13 105 43303 2005708 23261 17% 11 158701 4978 74%
c s 332.38 56 13 105 43303 2005708 19094 17% 11 158701 4978 74%
c w 332.71 56 13 105 43303 2005708 19090 17% 11 158701 4978 74%
c # 333.25 56 13 105 43734 2016126 23425 17% 11 158701 4978 74%
c 
c  seconds    reductions         redundant   irredundant
c          MB       restarts            trail       variables
c           level         conflicts         glue         remaining
c 
c - 334.83 56 13 106 45446 2043890 23004 17% 11 158701 4978 74%
c } 334.98 56 13 106 45616 2047009 24177 17% 11 158701 4978 74%
c [ 334.98 56 47 106 45616 2047009 24177 52% 33 158701 4978 74%
c I 337.19 56 40 106 45631 2080127 45425 42% 28 158701 4978 74%
c - 337.48 56 43 107 45632 2082429 31021 42% 28 158701 4978 74%
c - 348.63 73 50 108 45642 2121327 44198 47% 33 158701 4978 74%
c B 357.36 73 54 108 45650 2145129 66281 50% 35 158701 4978 74%
c - 361.38 56 57 109 45660 2160587 48029 50% 38 158701 4978 74%
c - 375.04 71 59 110 45667 2200207 47857 52% 44 158701 4978 74%
c W 389.81 71 59 110 45667 2211130 57026 53% 44 158701 4978 74%
c - 400.86 71 57 111 45668 2240188 49675 54% 44 158701 4978 74%
c O 416.12 71 55 111 45668 2278132 82411 55% 44 158701 4978 74%
c - 416.40 71 54 112 45668 2280527 52035 54% 43 158701 4978 74%
c - 427.57 71 50 113 45669 2321227 49765 54% 38 158701 4978 74%
c B 439.36 71 49 113 45669 2346133 71832 55% 37 158701 4978 74%
c - 447.20 71 48 114 45669 2362290 51750 56% 37 158701 4978 74%
c - 465.08 81 47 115 45669 2403709 53569 58% 37 158701 4978 74%
c W 482.50 81 46 115 45669 2415135 63006 58% 36 158701 4978 74%
c - 498.14 81 45 116 45681 2445490 55507 59% 36 158701 4978 74%
c I 518.13 81 42 116 45698 2485137 87895 59% 34 158701 4978 74%
c 
c  seconds    reductions         redundant   irredundant
c          MB       restarts            trail       variables
c           level         conflicts         glue         remaining
c 
c - 518.81 81 46 117 45699 2487630 55196 58% 35 158701 4978 74%
c - 523.42 81 52 118 45713 2530131 43360 46% 38 158701 4978 74%
c B 526.29 81 51 118 45723 2556138 62120 40% 37 158701 4978 74%
c - 530.78 81 51 119 45730 2572991 47260 43% 36 158701 4978 74%
c s 530.87 81 51 119 45730 2572991 43213 43% 36 158701 4978 74%
c w 531.34 81 51 119 45730 2572991 43212 43% 36 158701 4978 74%
c - 546.33 81 47 120 45732 2616211 50490 49% 35 158701 4978 74%
c W 561.77 81 46 120 45734 2628140 61477 50% 35 158701 4978 74%
c - 574.97 81 45 121 45747 2659793 52741 53% 35 158701 4978 74%
c O 591.47 81 44 121 45763 2701142 87209 56% 35 158701 4978 74%
c - 591.80 81 44 122 45763 2703735 54644 55% 35 158701 4978 74%
c - 594.70 47 37 123 45782 2748039 43924 43% 29 158701 4978 74%
c B 596.90 47 34 123 45793 2775143 62843 37% 27 158701 4978 74%
c ] 599.87 47 38 123 45794 2790804 76683 40% 28 158701 4978 74%
c ? 599.87 47 38 123 45794 2790804 76683 40% 28 158701 4978 74%
c 
c --- [ result ] -------------------------------------------------------------
c 
c UNKNOWN
c 
c --- [ run-time profiling ] -------------------------------------------------
c 
c process time taken by individual solving procedures
c (percentage relative to process time for solving)
c 
c       582.44   97.11% search
c       377.06   62.87% stable
c       113.64   18.95% walk
c        91.74   15.30% unstable
c        17.31    2.89% simplify
c         8.11    1.35% probe
c         2.51    0.42% vivify
c         1.25    0.21% ternary
c         1.07    0.18% elim
c         0.73    0.12% subsume
c         0.11    0.02% parse
c         0.00    0.00% lucky
c   =================================
c       599.76   99.98% solve
c 
c last line shows process time for solving
c (percentage relative to total process time)
c 
c --- [ statistics ] ---------------------------------------------------------
c 
c chronological:            435416        15.60 %  of conflicts
c conflicts:               2790804      4653.21    per second
c decisions:               3805543      6345.12    per second
c eliminated:                 1547        22.92 %  of all variables
c fixed:                       225         3.33 %  of all variables
c learned:                 2760631        98.92 %  per conflict
c learned_lits:          201666313       100.00 %  learned literals
c minimized:                     0         0.00 %  learned literals
c shrunken:               90450347        44.85 %  learned literals
c minishrunken:           13563014         6.73 %  learned literals
c propagations:          793236247         1.32 M  per second
c reduced:                 1841748        65.99 %  per conflict
c rephased:                     74     37713.57    interval
c restarts:                  45794        60.94    interval
c stabilizing:                   6        51.09 %  of conflicts
c subsumed:                 839461        13.91 %  of all clauses
c strengthened:               9138         0.15 %  of all clauses
c vivified:                    327         0.01 %  of all clauses
c walked:                       23    121339.30    interval
c weakened:                  97289         2.40    average size
c 
c seconds are measured in process time for solving
c 
c --- [ resources ] ----------------------------------------------------------
c 
c total process time since initialization:       599.87    seconds
c total real time since initialization:          600.00    seconds
c maximum resident set size of process:           80.69    MB
c 
c --- [ shutting down ] ------------------------------------------------------
c 
c exit 0
